SCIP version 0.82 [precision: 8 byte] [memory: block] [mode: optimized] [LP solver: SOPLEX 1.3.0]
Copyright (c) 2002-2006 Konrad-Zuse-Zentrum fuer Informationstechnik Berlin (ZIB)

reading parameter file <scip.set>

read problem </ufs/psxjm3/instances/random_7.ctt.et.zpl>
============

****************************************************
* Zuse Institute Mathematical Programming Language *
* Release 2.04  Copyright (C)2005 by Thorsten Koch *
****************************************************

original problem has 46956 variables (46855 bin, 101 int, 0 impl, 0 cont) and 12610 constraints

solve problem
=============

LP Solver <SOPLEX 1.3.0>: dual feasibility tolerance cannot be set -- tolerance of SCIP and LP solver may differ
LP Solver <SOPLEX 1.3.0>: barrier convergence tolerance cannot be set -- tolerance of SCIP and LP solver may differ
LP Solver <SOPLEX 1.3.0>: fastmip setting not available -- SCIP parameter has no effect
LP Solver <SOPLEX 1.3.0>: scaling not available -- SCIP parameter has no effect
LP Solver <SOPLEX 1.3.0>: presolving not available -- SCIP parameter has no effect
transformed problem has 46956 variables (46855 bin, 101 int, 0 impl, 0 cont) and 12610 constraints
  12610 constraints of type <linear>

presolving:
(round 1) 6314 del vars, 481 del conss, 6314 chg bounds, 0 chg sides, 0 chg coeffs, 0 upgd conss, 0 impls, 6166 clqs
(round 2) 6314 del vars, 914 del conss, 6314 chg bounds, 0 chg sides, 0 chg coeffs, 0 upgd conss, 0 impls, 6166 clqs
(round 3) 6314 del vars, 3635 del conss, 6314 chg bounds, 2729 chg sides, 0 chg coeffs, 0 upgd conss, 0 impls, 6166 clqs
(round 4) 6314 del vars, 3635 del conss, 6314 chg bounds, 2729 chg sides, 0 chg coeffs, 8401 upgd conss, 0 impls, 6166 clqs
(round 5) 6314 del vars, 3844 del conss, 6314 chg bounds, 2729 chg sides, 18 chg coeffs, 8401 upgd conss, 0 impls, 6166 clqs
   (185.8s) probing: 100/40541 (0.2%) - 0 fixings, 0 aggregations, 0 implications, 0 bound changes
presolving (6 rounds):
 6314 deleted vars, 3844 deleted constraints, 6314 tightened bounds, 0 added holes, 2729 changed sides, 18 changed coefficients
 0 implications, 6166 cliques
presolved problem has 40642 variables (40541 bin, 101 int, 0 impl, 0 cont) and 8766 constraints
   3748 constraints of type <knapsack>
   3987 constraints of type <setppc>
    574 constraints of type <linear>
    457 constraints of type <logicor>
objective value is always integral
Presolving Time: 184.35

 time | node  | left  |LP iter| mem |mdpt |frac |vars |cons |ccons|cols |rows |cuts |confs|strbr|  dualbound   | primalbound  |  gap   
  318s|     1 |     0 | 11418 | 357M|   0 |1108 |  40k|8766 |8766 |  40k|8766 |   0 |   0 |   0 | 3.814000e+03 |      --      |    Inf 
  407s|     1 |     0 | 17216 | 360M|   0 |1120 |  40k|8766 |8766 |  40k|8773 |   7 |   0 |   0 | 3.814000e+03 |      --      |    Inf 
  486s|     1 |     0 | 22180 | 360M|   0 |1128 |  40k|8766 |8766 |  40k|8779 |  13 |   0 |   0 | 3.814000e+03 |      --      |    Inf 
  550s|     1 |     0 | 26176 | 360M|   0 |1136 |  40k|8766 |8766 |  40k|8786 |  20 |   0 |   0 | 3.814000e+03 |      --      |    Inf 
  618s|     1 |     0 | 30322 | 360M|   0 |1176 |  40k|8766 |8766 |  40k|8792 |  26 |   0 |   0 | 3.814000e+03 |      --      |    Inf 
  711s|     1 |     0 | 35960 | 360M|   0 |1119 |  40k|8766 |8766 |  40k|8799 |  33 |   0 |   0 | 3.814000e+03 |      --      |    Inf 
  769s|     1 |     0 | 39436 | 360M|   0 |1162 |  40k|8766 |8766 |  40k|8805 |  39 |   0 |   0 | 3.814000e+03 |      --      |    Inf 
 1240s|     1 |     2 | 49436 | 360M|   0 |1162 |  40k|8766 |8766 |  40k|8805 |  39 |   0 |  17 | 3.814000e+03 |      --      |    Inf 

SCIP Status        : solving was interrupted [time limit reached]
Solving Time (sec) : 7210.67
Solving Nodes      : 48
Primal Bound       : +1.00000000000000e+20 (0 solutions)
Dual Bound         : +3.81400000000001e+03
Gap                : infinite

primal solution:
================

no solution available

Statistics
==========

SCIP Status        : solving was interrupted [time limit reached]
Solving Time       :    7210.67
Original Problem   :
  Problem name     : random_7.ctt.et.zpl
  Variables        : 46956 (46855 binary, 101 integer, 0 implicit integer, 0 continuous)
  Constraints      : 12610 initial, 12610 maximal
Presolved Problem  :
  Problem name     : t_random_7.ctt.et.zpl
  Variables        : 40642 (40541 binary, 101 integer, 0 implicit integer, 0 continuous)
  Constraints      : 8766 initial, 8766 maximal
Presolvers         :       Time  FixedVars   AggrVars   ChgTypes  ChgBounds   AddHoles    DelCons   ChgSides   ChgCoefs
  trivial          :       0.02          0          0          0          0          0          0          0          0
  inttobinary      :       0.00          0          0          0          0          0          0          0          0
  dualfix          :       0.04          0          0          0          0          0          0          0          0
  implics          :       0.04          0          0          0          0          0          0          0          0
  probing          :       8.45          0          0          0          0          0          0          0          0
  knapsack         :     114.03          0          0          0          0          0          0          0         18
  setppc           :       1.79          0          0          0          0          0        209          0          0
  linear           :      58.94       6314          0          0       6314          0       3635       2729          0
  logicor          :       0.00          0          0          0          0          0          0          0          0
  root node        :          -          0          -          -          0          -          -          -          -
Constraints        :     Number  #Separate #Propagate    #EnfoLP    #EnfoPS    Cutoffs    DomReds       Cuts      Conss   Children
  integral         :          0          0          0         48          0          0          0          0          0         96
  knapsack         :       3748          6        282          0          0          0          0          0          0          0
  setppc           :       3987          6        282          0          0          0       5721          0          0          0
  linear           :        574          6        215          0          0          0          0          0          0          0
  logicor          :        457          6         24          0          0          0          0          0          0          0
Constraint Timings :  TotalTime   Separate  Propagate     EnfoLP     EnfoPS
  integral         :    3704.53       0.00       0.00    3704.53       0.00
  knapsack         :       4.05       3.87       0.18       0.00       0.00
  setppc           :       0.21       0.02       0.19       0.00       0.00
  linear           :       6.58       1.06       5.52       0.00       0.00
  logicor          :       0.01       0.00       0.01       0.00       0.00
Propagators        :       Time      Calls    Cutoffs    DomReds
  rootredcost      :       0.00          0          0          0
  pseudoobj        :       0.00         82          0          0
Conflict Analysis  :       Time      Calls    Success  Conflicts   Literals    Reconvs ReconvLits   LP Iters
  propagation      :       0.00          0          0          0        0.0          0        0.0          -
  infeasible LP    :       0.00          0          0          0        0.0          0        0.0          0
  bound exceed. LP :       0.00          0          0          0        0.0          0        0.0          0
  strong branching :       0.00          0          0          0        0.0          0        0.0          0
  pseudo solution  :       0.00          0          0          0        0.0          0        0.0          -
  applied globally :          -          -          -          0        0.0          -          -          -
  applied locally  :          -          -          -          0        0.0          -          -          -
Separators         :       Time      Calls    Cutoffs    DomReds       Cuts      Conss
  cut pool         :       0.00          5          -          -          2          -    (maximal pool size: 40)
  redcost          :       0.58         53          0          0          0          0
  impliedbounds    :       0.06          6          0          0          0          0
  intobj           :       0.00          0          0          0          0          0
  gomory           :       5.15          6          0          0          0          0
  strongcg         :       5.70          6          0          0          0          0
  cmir             :       7.68          6          0          0          0          0
  clique           :       0.86          6          0          0         37          0
Pricers            :       Time      Calls       Vars
  problem variables:       0.00          0          0
Branching Rules    :       Time      Calls    Cutoffs    DomReds       Cuts      Conss   Children
  relpscost        :    3704.53         48          0          0          0          0         96
  pscost           :       0.00          0          0          0          0          0          0
  inference        :       0.00          0          0          0          0          0          0
  mostinf          :       0.00          0          0          0          0          0          0
  leastinf         :       0.00          0          0          0          0          0          0
  fullstrong       :       0.00          0          0          0          0          0          0
  allfullstrong    :       0.00          0          0          0          0          0          0
Primal Heuristics  :       Time      Calls      Found
  LP solutions     :       0.00          -          0
  pseudo solutions :       0.00          -          0
  coefdiving       :       0.00          0          0
  pscostdiving     :       0.00          0          0
  fracdiving       :       0.00          0          0
  objpscostdiving  :       0.00          0          0
  rootsoldiving    :       0.00          0          0
  linesearchdiving :       0.00          0          0
  guideddiving     :       0.00          0          0
  crossover        :       0.00          0          0
  feaspump         :     204.47          1          0
  simplerounding   :       0.54         54          0
  rounding         :       2.22         54          0
  shifting         :       1.98         11          0
  fixandinfer      :       0.00          0          0
  intdiving        :       0.00          0          0
  octane           :       0.00          0          0
  rins             :       0.00          0          0
  localbranching   :       0.00          0          0
LP                 :       Time      Calls Iterations  Iter/call   Iter/sec
  primal LP        :       0.09          0          0       0.00       0.00
  dual LP          :    3082.11         54     199835    3700.65      64.84
  barrier LP       :       0.00          0          0       0.00          -
  diving/probing LP:     204.42          1      10000   10000.00      48.92
  strong branching :    3704.45        230     228503     993.49      61.68
    (at root node) :          -         17      17000    1000.00          -
  conflict analysis:       0.00          0          0       0.00          -
B&B Tree           :
  number of runs   :          1
  nodes            :         48
  nodes (total)    :         48
  nodes left       :         49
  max depth        :         47
  max depth (total):         47
  backtracks       :          0 (0.0%)
  delayed cutoffs  :          0
  repropagations   :          0 (0 domain reductions, 0 cutoffs)
  avg switch length:       1.00
  switching time   :       0.17
Solution           :
  Solutions found  :          0 (0 improvements)
  Primal Bound     :          -
  Dual Bound       : +3.81400000000001e+03
  Gap              :   infinite
  Root Dual Bound  : +3.81400000000000e+03
